
  22    4
  10   10   10   10

   0   0   0   0   0   5 2 3 5 7 10 
   9  10  10  10  10   6 14 13 12 8 6 4 
   5  10  10  10  10   2 13 4 
   5  10  10  10  10   3 21 11 9 
   9  10  10  10  10   3 21 14 9 
   1  10  10  10  10   4 21 20 19 11 
   9  10  10  10  10   4 16 15 13 12 
   7  10  10  10  10   5 21 20 19 16 15 
   8  10  10  10  10   4 20 19 16 15 
   9  10  10  10  10   2 20 11 
   8  10  10  10  10   2 16 15 
   3  10  10  10  10   2 20 17 
   1  10  10  10  10   2 19 18 
   8  10  10  10  10   2 19 18 
   2  10  10  10  10   1 17 
   6  10  10  10  10   1 17 
   5  10  10  10  10   1 18 
   1  10  10  10  10   1 22
   3  10  10  10  10   1 22
   9  10  10  10  10   1 22
  10  10  10  10  10   1 22
   0   0   0   0   0   0 
